Route #1: 26 7 53 59 14 35
Route #2: 11 38 10 58 12
Route #3: 40 32 9 39
Route #4: 31 55 25 50 18 24 49 23
Route #5: 22 64 42 41 56 43 1
Route #6: 62 28 61 21 47 5
Route #7: 36 60 20 37 15 57 13 54 19
Route #8: 34 46 8 52 27 4
Route #9: 45 29 48 30 2 6
Route #10: 51 33 63 16 3 44 17
Cost 840